c File: flat300_28_0.col
c
c SOURCE: Joseph Culberson (joe@cs.ualberta.ca)
c DESCRIPTION: Quasi-random coloring problem
c              generated with flatness = 0
c                             probability = 0.500
c                             known coloring = 28
c                             random seed = 700198124
c              Creation Date:  Fri Nov  5 11:50:13 1993
c Maximum degree = 162 Minimum degree = 130
p edge 300 21695
e 12 8
e 13 8
e 16 8
e 18 8
e 19 8
e 21 8
e 24 8
e 25 8
e 25 16
e 26 8
e 28 8
e 28 16
e 29 16
e 31 16
e 32 16
e 33 8
e 33 16
e 34 32
e 35 32
e 37 16
e 37 24
e 37 32
e 38 8
e 38 16
e 38 32
e 39 16
e 39 24
e 40 24
e 41 16
e 42 8
e 42 32
e 43 8
e 44 24
e 45 8
e 45 24
e 45 40
e 46 8
e 46 16
e 47 16
e 47 24
e 48 40
e 49 16
e 49 32
e 49 40
e 50 16
e 51 8
e 51 16
e 51 24
e 51 32
e 51 40
e 52 8
e 52 16
e 52 24
e 52 32
e 52 40
e 53 8
e 53 24
e 53 32
e 53 40
e 54 8
e 54 16
e 54 40
e 56 32
e 56 40
e 57 16
e 57 24
e 57 32
e 57 40
e 57 48
e 58 8
e 58 40
e 58 48
e 59 40
e 59 48
e 60 8
e 60 40
e 61 8
e 61 16
e 61 48
e 62 24
e 62 40
e 63 32
e 63 48
e 64 16
e 64 48
e 65 8
e 65 16
e 65 32
e 66 8
e 66 32
e 66 48
e 67 8
e 67 16
e 67 24
e 67 32
e 67 40
e 67 48
e 68 16
e 68 40
e 68 48
e 68 56
e 68 64
e 69 16
e 69 24
e 69 40
e 69 56
e 69 64
e 70 8
e 70 32
e 70 40
e 70 48
e 70 56
e 71 16
e 71 32
e 71 40
e 71 64
e 72 8
e 72 32
e 72 48
e 72 56
e 72 64
e 73 16
e 73 24
e 73 32
e 73 40
e 73 48
e 73 56
e 74 32
e 74 40
e 75 16
e 75 24
e 75 48
e 75 56
e 76 8
e 76 16
e 76 48
e 77 32
e 77 64
e 78 32
e 78 40
e 78 48
e 78 72
e 79 16
e 79 24
e 79 40
e 79 48
e 79 56
e 79 72
e 80 16
e 80 40
e 80 48
e 80 56
e 80 64
e 81 8
e 81 56
e 82 8
e 82 40
e 82 56
e 82 72
e 83 8
e 83 24
e 83 32
e 83 40
e 83 64
e 83 72
e 84 32
e 84 48
e 84 64
e 85 16
e 85 24
e 85 32
e 85 56
e 85 64
e 86 16
e 86 72
e 87 24
e 87 32
e 87 48
e 87 72
e 88 8
e 88 16
e 88 40
e 88 48
e 88 56
e 88 72
e 89 16
e 89 32
e 89 40
e 89 64
e 89 72
e 89 80
e 89 88
e 90 8
e 90 24
e 90 56
e 90 80
e 91 16
e 91 24
e 91 48
e 91 64
e 91 80
e 92 16
e 92 24
e 92 32
e 92 40
e 92 88
e 93 8
e 93 32
e 93 48
e 93 56
e 93 72
e 93 88
e 94 16
e 94 32
e 94 40
e 94 48
e 94 56
e 94 72
e 94 88
e 95 8
e 95 16
e 95 32
e 95 72
e 95 88
e 96 8
e 96 40
e 96 64
e 96 80
e 97 8
e 97 24
e 97 64
e 98 24
e 98 32
e 98 80
e 98 88
e 99 8
e 99 24
e 99 40
e 99 56
e 99 64
e 99 72
e 99 88
e 100 24
e 100 40
e 100 56
e 100 64
e 100 72
e 100 96
e 101 8
e 101 16
e 101 24
e 101 32
e 101 64
e 101 72
e 101 80
e 101 88
e 101 96
e 102 8
e 102 16
e 102 32
e 102 40
e 102 48
e 102 64
e 102 72
e 102 80
e 102 96
e 103 16
e 103 24
e 103 48
e 103 72
e 103 80
e 103 96
e 104 8
e 104 16
e 104 24
e 104 56
e 104 72
e 104 80
e 104 96
e 105 16
e 105 32
e 105 40
e 105 48
e 105 56
e 105 88
e 106 8
e 106 24
e 106 64
e 106 88
e 106 96
e 107 16
e 107 32
e 107 64
e 107 80
e 107 88
e 108 8
e 108 16
e 108 32
e 108 56
e 108 80
e 108 88
e 108 96
e 109 32
e 109 64
e 109 80
e 109 88
e 110 64
e 110 72
e 110 88
e 111 24
e 111 40
e 111 56
e 111 72
e 111 80
e 111 96
e 111 104
e 112 8
e 112 32
e 112 80
e 112 88
e 112 104
e 113 8
e 113 16
e 113 32
e 113 40
e 113 48
e 113 64
e 113 96
e 114 24
e 114 32
e 114 56
e 114 64
e 114 88
e 114 104
e 115 40
e 115 48
e 115 56
e 115 64
e 115 80
e 115 88
e 115 104
e 116 8
e 116 16
e 116 40
e 116 56
e 116 64
e 116 72
e 116 88
e 116 96
e 116 104
e 117 16
e 117 32
e 117 48
e 117 56
e 117 80
e 117 88
e 117 96
e 118 8
e 118 24
e 118 40
e 118 48
e 118 56
e 118 64
e 118 96
e 119 32
e 119 48
e 119 64
e 119 72
e 119 80
e 119 88
e 119 96
e 119 104
e 120 8
e 120 24
e 120 40
e 120 48
e 120 80
e 120 96
e 121 8
e 121 24
e 121 40
e 121 48
e 121 64
e 121 80
e 121 88
e 122 8
e 122 32
e 122 40
e 122 48
e 122 120
e 123 16
e 123 24
e 123 48
e 123 56
e 123 96
e 123 104
e 124 24
e 124 32
e 124 56
e 124 64
e 124 72
e 124 80
e 124 88
e 125 8
e 125 16
e 125 32
e 125 40
e 125 80
e 125 88
e 126 8
e 126 32
e 126 40
e 126 48
e 126 64
e 126 72
e 126 88
e 126 96
e 126 104
e 127 16
e 127 32
e 127 64
e 127 72
e 127 80
e 127 88
e 127 96
e 127 112
e 127 120
e 128 24
e 128 48
e 128 56
e 128 96
e 128 112
e 129 24
e 129 40
e 129 48
e 129 80
e 129 96
e 129 104
e 129 112
e 129 120
e 130 8
e 130 16
e 130 24
e 130 32
e 130 40
e 130 48
e 130 56
e 130 64
e 130 80
e 130 88
e 130 96
e 130 104
e 130 112
e 130 120
e 131 16
e 131 24
e 131 32
e 131 40
e 131 80
e 131 88
e 131 96
e 131 104
e 131 120
e 132 8
e 132 16
e 132 24
e 132 40
e 132 48
e 132 56
e 132 80
e 132 88
e 132 104
e 132 112
e 133 16
e 133 24
e 133 32
e 133 56
e 133 80
e 133 88
e 133 112
e 133 128
e 134 16
e 134 24
e 134 32
e 134 40
e 134 80
e 134 88
e 134 96
e 134 104
e 134 112
e 134 120
e 134 128
e 135 48
e 135 72
e 135 80
e 135 104
e 135 128
e 136 8
e 136 32
e 136 40
e 136 88
e 136 96
e 136 104
e 136 112
e 136 120
e 137 32
e 137 40
e 137 48
e 137 56
e 137 80
e 137 88
e 137 104
e 137 120
e 137 128
e 138 24
e 138 40
e 138 96
e 138 104
e 139 8
e 139 24
e 139 40
e 139 56
e 139 64
e 139 72
e 139 96
e 140 24
e 140 72
e 140 80
e 140 88
e 140 112
e 140 120
e 140 128
e 141 64
e 141 72
e 141 88
e 141 104
e 141 112
e 141 120
e 142 8
e 142 16
e 142 40
e 142 48
e 142 64
e 142 72
e 142 80
e 142 96
e 142 104
e 142 112
e 142 128
e 143 8
e 143 24
e 143 32
e 143 48
e 143 64
e 143 72
e 143 80
e 143 88
e 143 120
e 144 32
e 144 40
e 144 48
e 144 72
e 144 80
e 144 96
e 144 112
e 144 128
e 144 136
e 145 32
e 145 40
e 145 80
e 145 88
e 145 96
e 145 120
e 145 128
e 146 8
e 146 24
e 146 56
e 146 64
e 146 88
e 146 96
e 146 104
e 147 32
e 147 40
e 147 80
e 147 88
e 147 96
e 147 128
e 148 16
e 148 56
e 148 80
e 148 104
e 148 112
e 148 136
e 149 8
e 149 24
e 149 48
e 149 56
e 149 80
e 149 88
e 149 112
e 149 120
e 149 128
e 150 8
e 150 16
e 150 40
e 150 64
e 150 72
e 150 80
e 150 88
e 150 128
e 151 8
e 151 24
e 151 40
e 151 48
e 151 56
e 151 72
e 151 80
e 151 96
e 151 136
e 152 8
e 152 16
e 152 40
e 152 56
e 152 64
e 152 72
e 152 88
e 152 104
e 152 128
e 153 16
e 153 24
e 153 32
e 153 40
e 153 56
e 153 72
e 153 96
e 153 104
e 154 8
e 154 48
e 154 72
e 154 88
e 154 112
e 154 136
e 155 32
e 155 48
e 155 72
e 155 104
e 155 112
e 155 120
e 155 144
e 155 152
e 156 8
e 156 16
e 156 24
e 156 48
e 156 64
e 156 112
e 157 64
e 157 80
e 157 96
e 157 120
e 157 136
e 157 152
e 158 16
e 158 24
e 158 32
e 158 40
e 158 48
e 158 80
e 158 88
e 158 96
e 158 112
e 158 120
e 158 128
e 158 144
e 159 8
e 159 24
e 159 32
e 159 40
e 159 56
e 159 64
e 159 72
e 159 96
e 159 120
e 159 128
e 159 144
e 159 152
e 160 8
e 160 24
e 160 32
e 160 40
e 160 48
e 160 64
e 160 72
e 160 88
e 160 96
e 160 104
e 160 120
e 160 144
e 160 152
e 161 16
e 161 24
e 161 40
e 161 56
e 161 64
e 161 80
e 161 88
e 161 128
e 161 136
e 161 144
e 161 152
e 162 8
e 162 16
e 162 32
e 162 40
e 162 48
e 162 56
e 162 72
e 162 80
e 162 128
e 162 136
e 162 144
e 162 152
e 163 16
e 163 24
e 163 80
e 163 112
e 163 120
e 163 128
e 163 136
e 163 152
e 164 16
e 164 24
e 164 32
e 164 40
e 164 56
e 164 72
e 164 104
e 164 112
e 164 120
e 164 136
e 164 144
e 165 8
e 165 16
e 165 32
e 165 56
e 165 72
e 165 96
e 165 104
e 165 128
e 166 8
e 166 16
e 166 24
e 166 40
e 166 64
e 166 88
e 166 96
e 166 104
e 166 120
e 166 160
e 167 8
e 167 16
e 167 24
e 167 64
e 167 72
e 167 88
e 167 96
e 167 112
e 167 136
e 167 144
e 167 152
e 167 160
e 168 24
e 168 32
e 168 40
e 168 48
e 168 64
e 168 80
e 168 96
e 168 104
e 168 112
e 168 144
e 168 152
e 169 24
e 169 32
e 169 48
e 169 64
e 169 104
e 169 112
e 169 120
e 169 152
e 169 160
e 170 40
e 170 48
e 170 56
e 170 64
e 170 96
e 170 120
e 170 128
e 170 152
e 171 16
e 171 48
e 171 64
e 171 88
e 171 96
e 171 104
e 171 112
e 171 136
e 171 144
e 171 160
e 172 8
e 172 16
e 172 24
e 172 32
e 172 56
e 172 72
e 172 80
e 172 104
e 172 136
e 172 144
e 173 8
e 173 24
e 173 56
e 173 72
e 173 80
e 173 88
e 173 96
e 173 104
e 173 120
e 173 136
e 173 152
e 174 8
e 174 16
e 174 48
e 174 56
e 174 64
e 174 72
e 174 88
e 174 120
e 174 128
e 174 136
e 174 144
e 175 8
e 175 16
e 175 32
e 175 40
e 175 48
e 175 72
e 175 80
e 175 88
e 175 136
e 175 152
e 176 8
e 176 24
e 176 32
e 176 80
e 176 88
e 176 96
e 176 104
e 176 112
e 176 136
e 176 152
e 177 8
e 177 16
e 177 24
e 177 32
e 177 40
e 177 48
e 177 56
e 177 64
e 177 96
e 177 112
e 177 128
e 177 144
e 177 168
e 177 176
e 178 8
e 178 16
e 178 32
e 178 40
e 178 48
e 178 56
e 178 72
e 178 80
e 178 88
e 178 120
e 178 128
e 178 144
e 178 168
e 178 176
e 179 8
e 179 16
e 179 24
e 179 72
e 179 80
e 179 88
e 179 104
e 179 112
e 179 144
e 179 160
e 180 16
e 180 32
e 180 40
e 180 72
e 180 88
e 180 104
e 180 120
e 180 128
e 180 144
e 180 152
e 180 168
e 180 176
e 181 8
e 181 32
e 181 40
e 181 48
e 181 72
e 181 80
e 181 88
e 181 96
e 181 104
e 181 112
e 181 120
e 181 152
e 181 168
e 182 8
e 182 32
e 182 40
e 182 48
e 182 56
e 182 72
e 182 88
e 182 96
e 182 104
e 182 112
e 182 120
e 182 136
e 182 144
e 182 160
e 182 168
e 183 8
e 183 16
e 183 24
e 183 48
e 183 56
e 183 80
e 183 96
e 183 104
e 183 176
e 184 24
e 184 56
e 184 88
e 184 96
e 184 120
e 184 144
e 184 160
e 184 168
e 184 176
e 185 16
e 185 24
e 185 72
e 185 80
e 185 88
e 185 96
e 185 128
e 185 136
e 185 152
e 185 160
e 185 168
e 185 176
e 186 16
e 186 48
e 186 56
e 186 72
e 186 80
e 186 112
e 186 136
e 186 152
e 186 160
e 187 40
e 187 56
e 187 64
e 187 80
e 187 104
e 187 120
e 187 128
e 187 160
e 187 176
e 188 16
e 188 24
e 188 32
e 188 40
e 188 56
e 188 88
e 188 104
e 188 120
e 188 160
e 188 168
e 189 8
e 189 16
e 189 48
e 189 56
e 189 72
e 189 80
e 189 96
e 189 128
e 189 136
e 189 160
e 189 168
e 189 176
e 189 184
e 190 24
e 190 32
e 190 80
e 190 88
e 190 96
e 190 136
e 190 144
e 190 152
e 190 160
e 190 184
e 191 32
e 191 40
e 191 48
e 191 56
e 191 64
e 191 80
e 191 88
e 191 112
e 191 128
e 191 136
e 191 152
e 191 160
e 191 184
e 192 8
e 192 16
e 192 24
e 192 32
e 192 40
e 192 64
e 192 104
e 192 112
e 192 120
e 192 128
e 192 136
e 192 184
e 193 16
e 193 24
e 193 40
e 193 48
e 193 80
e 193 96
e 193 112
e 193 120
e 193 128
e 193 136
e 193 144
e 193 152
e 193 168
e 193 176
e 194 8
e 194 16
e 194 24
e 194 32
e 194 80
e 194 88
e 194 96
e 194 104
e 194 112
e 194 128
e 194 160
e 194 168
e 194 184
e 195 16
e 195 24
e 195 32
e 195 48
e 195 56
e 195 104
e 195 112
e 195 120
e 195 144
e 195 152
e 196 8
e 196 40
e 196 88
e 196 112
e 196 128
e 196 144
e 196 152
e 197 8
e 197 24
e 197 32
e 197 40
e 197 48
e 197 56
e 197 64
e 197 72
e 197 104
e 197 112
e 197 128
e 197 152
e 197 176
e 197 184
e 198 8
e 198 16
e 198 48
e 198 56
e 198 72
e 198 120
e 198 152
e 198 160
e 198 168
e 198 176
e 199 8
e 199 16
e 199 88
e 199 96
e 199 104
e 199 112
e 199 128
e 199 136
e 199 168
e 199 176
e 199 192
e 200 16
e 200 40
e 200 72
e 200 80
e 200 96
e 200 112
e 200 120
e 200 152
e 200 168
e 200 192
e 201 16
e 201 32
e 201 48
e 201 56
e 201 72
e 201 88
e 201 96
e 201 120
e 201 144
e 201 152
e 201 176
e 201 184
e 201 192
e 202 8
e 202 16
e 202 24
e 202 32
e 202 48
e 202 64
e 202 80
e 202 104
e 202 120
e 202 144
e 202 152
e 202 176
e 203 80
e 203 112
e 203 120
e 203 136
e 203 144
e 203 152
e 203 160
e 203 168
e 203 184
e 204 8
e 204 16
e 204 32
e 204 48
e 204 96
e 204 104
e 204 120
e 204 128
e 204 136
e 204 144
e 204 152
e 204 160
e 204 168
e 204 176
e 204 184
e 205 8
e 205 40
e 205 64
e 205 88
e 205 96
e 205 104
e 205 160
e 205 176
e 205 184
e 206 8
e 206 48
e 206 56
e 206 72
e 206 80
e 206 88
e 206 112
e 206 128
e 206 144
e 206 184
e 207 16
e 207 48
e 207 64
e 207 80
e 207 104
e 207 120
e 207 128
e 207 136
e 207 144
e 207 152
e 207 168
e 207 176
e 207 192
e 208 8
e 208 40
e 208 48
e 208 80
e 208 120
e 208 136
e 208 168
e 208 176
e 208 184
e 209 8
e 209 16
e 209 24
e 209 32
e 209 48
e 209 56
e 209 64
e 209 112
e 209 144
e 209 152
e 209 160
e 209 168
e 209 192
e 210 24
e 210 40
e 210 48
e 210 56
e 210 80
e 210 136
e 210 168
e 210 184
e 211 16
e 211 32
e 211 40
e 211 48
e 211 64
e 211 80
e 211 120
e 211 128
e 211 136
e 211 144
e 211 152
e 211 168
e 211 192
e 212 16
e 212 24
e 212 40
e 212 56
e 212 64
e 212 72
e 212 88
e 212 96
e 212 104
e 212 112
e 212 120
e 212 128
e 212 136
e 212 144
e 212 152
e 212 160
e 212 184
e 212 200
e 212 208
e 213 8
e 213 24
e 213 56
e 213 88
e 213 96
e 213 112
e 213 144
e 213 152
e 213 160
e 213 168
e 213 176
e 213 184
e 213 208
e 214 24
e 214 32
e 214 48
e 214 104
e 214 112
e 214 128
e 214 136
e 214 144
e 214 152
e 214 168
e 214 176
e 214 184
e 214 192
e 214 200
e 215 16
e 215 32
e 215 48
e 215 56
e 215 64
e 215 72
e 215 80
e 215 88
e 215 104
e 215 120
e 215 128
e 215 152
e 215 160
e 215 168
e 215 192
e 215 200
e 216 8
e 216 16
e 216 24
e 216 32
e 216 40
e 216 56
e 216 64
e 216 72
e 216 104
e 216 112
e 216 128
e 216 192
e 216 200
e 217 8
e 217 40
e 217 48
e 217 64
e 217 72
e 217 88
e 217 96
e 217 104
e 217 120
e 217 128
e 217 136
e 217 144
e 217 184
e 217 192
e 218 8
e 218 24
e 218 40
e 218 48
e 218 88
e 218 112
e 218 120
e 218 128
e 218 152
e 218 200
e 219 56
e 219 88
e 219 96
e 219 112
e 219 120
e 219 152
e 219 176
e 219 200
e 220 8
e 220 16
e 220 56
e 220 80
e 220 96
e 220 104
e 220 112
e 220 120
e 220 160
e 220 168
e 220 176
e 220 184
e 220 192
e 220 200
e 221 8
e 221 16
e 221 24
e 221 64
e 221 88
e 221 104
e 221 120
e 221 152
e 221 176
e 221 216
e 222 8
e 222 16
e 222 24
e 222 64
e 222 72
e 222 80
e 222 88
e 222 96
e 222 104
e 222 112
e 222 120
e 222 128
e 222 152
e 222 176
e 222 208
e 222 216
e 223 8
e 223 16
e 223 24
e 223 32
e 223 56
e 223 72
e 223 80
e 223 112
e 223 120
e 223 136
e 223 144
e 223 160
e 223 184
e 223 192
e 223 200
e 223 208
e 224 8
e 224 32
e 224 40
e 224 48
e 224 64
e 224 72
e 224 96
e 224 128
e 224 144
e 224 160
e 224 208
e 224 216
e 225 16
e 225 24
e 225 32
e 225 56
e 225 64
e 225 72
e 225 80
e 225 88
e 225 96
e 225 104
e 225 144
e 225 152
e 225 168
e 225 184
e 225 192
e 225 200
e 225 208
e 225 216
e 226 16
e 226 24
e 226 32
e 226 56
e 226 96
e 226 104
e 226 112
e 226 120
e 226 152
e 226 160
e 226 184
e 226 192
e 226 208
e 226 216
e 227 32
e 227 40
e 227 72
e 227 88
e 227 112
e 227 128
e 227 160
e 227 168
e 227 184
e 227 192
e 228 16
e 228 48
e 228 56
e 228 72
e 228 80
e 228 88
e 228 112
e 228 144
e 228 160
e 228 168
e 228 184
e 229 32
e 229 40
e 229 48
e 229 56
e 229 64
e 229 88
e 229 96
e 229 104
e 229 112
e 229 120
e 229 136
e 229 152
e 229 168
e 229 176
e 229 184
e 229 200
e 230 24
e 230 40
e 230 48
e 230 80
e 230 120
e 230 128
e 230 136
e 230 152
e 230 168
e 230 208
e 231 8
e 231 16
e 231 24
e 231 32
e 231 112
e 231 120
e 231 136
e 231 144
e 231 152
e 231 184
e 231 192
e 231 200
e 231 216
e 232 8
e 232 32
e 232 80
e 232 88
e 232 96
e 232 104
e 232 112
e 232 128
e 232 144
e 232 152
e 232 168
e 232 184
e 232 208
e 232 216
e 232 224
e 233 8
e 233 40
e 233 48
e 233 64
e 233 88
e 233 120
e 233 144
e 233 176
e 233 192
e 233 208
e 234 16
e 234 24
e 234 40
e 234 64
e 234 72
e 234 88
e 234 96
e 234 104
e 234 112
e 234 120
e 234 128
e 234 160
e 234 176
e 234 184
e 234 216
e 234 224
e 235 8
e 235 32
e 235 40
e 235 48
e 235 56
e 235 64
e 235 72
e 235 80
e 235 88
e 235 96
e 235 104
e 235 144
e 235 168
e 235 192
e 235 216
e 235 224
e 236 8
e 236 16
e 236 48
e 236 56
e 236 72
e 236 88
e 236 96
e 236 104
e 236 144
e 236 152
e 236 160
e 236 168
e 236 176
e 236 192
e 236 224
e 237 16
e 237 24
e 237 40
e 237 48
e 237 64
e 237 72
e 237 104
e 237 136
e 237 152
e 237 168
e 237 176
e 237 200
e 237 208
e 237 224
e 238 24
e 238 40
e 238 56
e 238 64
e 238 96
e 238 104
e 238 112
e 238 120
e 238 160
e 238 168
e 238 176
e 238 184
e 238 192
e 238 200
e 238 208
e 238 216
e 239 16
e 239 32
e 239 56
e 239 64
e 239 96
e 239 112
e 239 120
e 239 128
e 239 152
e 239 208
e 240 8
e 240 16
e 240 40
e 240 56
e 240 72
e 240 88
e 240 112
e 240 128
e 240 136
e 240 144
e 240 168
e 240 192
e 240 200
e 240 224
e 241 8
e 241 16
e 241 40
e 241 56
e 241 80
e 241 96
e 241 104
e 241 120
e 241 128
e 241 144
e 241 160
e 241 168
e 241 176
e 241 184
e 241 200
e 241 208
e 241 216
e 241 232
e 241 240
e 242 16
e 242 24
e 242 48
e 242 56
e 242 64
e 242 72
e 242 136
e 242 144
e 242 152
e 242 168
e 242 176
e 242 216
e 242 224
e 242 232
e 243 16
e 243 32
e 243 40
e 243 48
e 243 72
e 243 80
e 243 88
e 243 96
e 243 112
e 243 120
e 243 136
e 243 176
e 243 184
e 243 192
e 243 208
e 243 216
e 243 224
e 243 232
e 244 32
e 244 40
e 244 48
e 244 56
e 244 64
e 244 88
e 244 96
e 244 104
e 244 160
e 244 168
e 244 192
e 244 200
e 244 232
e 245 24
e 245 40
e 245 56
e 245 64
e 245 80
e 245 88
e 245 104
e 245 112
e 245 128
e 245 136
e 245 144
e 245 152
e 245 168
e 245 176
e 245 200
e 246 8
e 246 24
e 246 40
e 246 48
e 246 56
e 246 72
e 246 80
e 246 96
e 246 120
e 246 128
e 246 168
e 246 176
e 246 192
e 246 216
e 246 224
e 246 232
e 247 8
e 247 40
e 247 48
e 247 88
e 247 104
e 247 112
e 247 120
e 247 136
e 247 144
e 247 152
e 247 184
e 247 200
e 247 216
e 248 24
e 248 48
e 248 88
e 248 96
e 248 104
e 248 136
e 248 144
e 248 152
e 248 160
e 248 168
e 248 192
e 248 224
e 248 232
e 248 240
e 249 8
e 249 24
e 249 56
e 249 64
e 249 80
e 249 88
e 249 112
e 249 120
e 249 128
e 249 136
e 249 144
e 249 152
e 249 160
e 249 184
e 249 224
e 250 8
e 250 16
e 250 24
e 250 64
e 250 72
e 250 80
e 250 96
e 250 104
e 250 112
e 250 128
e 250 152
e 250 160
e 250 184
e 250 200
e 250 216
e 250 224
e 250 240
e 251 16
e 251 32
e 251 48
e 251 56
e 251 64
e 251 80
e 251 88
e 251 112
e 251 120
e 251 128
e 251 160
e 251 168
e 251 176
e 251 208
e 252 40
e 252 56
e 252 72
e 252 80
e 252 96
e 252 104
e 252 136
e 252 144
e 252 176
e 252 184
e 252 200
e 252 208
e 252 224
e 252 240
e 253 8
e 253 16
e 253 32
e 253 40
e 253 88
e 253 96
e 253 104
e 253 112
e 253 120
e 253 144
e 253 160
e 253 168
e 253 176
e 253 200
e 253 240
e 253 248
e 254 32
e 254 40
e 254 48
e 254 64
e 254 72
e 254 88
e 254 96
e 254 112
e 254 144
e 254 176
e 254 184
e 254 192
e 254 208
e 254 216
e 254 240
e 255 8
e 255 16
e 255 32
e 255 48
e 255 64
e 255 88
e 255 112
e 255 120
e 255 128
e 255 152
e 255 160
e 255 176
e 255 200
e 255 216
e 255 224
e 255 232
e 255 240
e 255 248
e 256 8
e 256 32
e 256 40
e 256 48
e 256 64
e 256 80
e 256 128
e 256 160
e 256 184
e 256 192
e 256 200
e 256 216
e 256 224
e 256 232
e 256 240
e 257 16
e 257 48
e 257 64
e 257 72
e 257 80
e 257 112
e 257 128
e 257 136
e 257 144
e 257 160
e 257 184
e 257 192
e 257 200
e 257 208
e 257 216
e 257 224
e 257 232
e 258 8
e 258 40
e 258 72
e 258 80
e 258 88
e 258 96
e 258 120
e 258 136
e 258 152
e 258 168
e 258 184
e 258 192
e 258 216
e 259 8
e 259 40
e 259 56
e 259 80
e 259 88
e 259 96
e 259 104
e 259 136
e 259 152
e 259 160
e 259 192
e 259 216
e 259 224
e 259 232
e 259 248
e 260 16
e 260 24
e 260 32
e 260 48
e 260 56
e 260 64
e 260 72
e 260 112
e 260 128
e 260 136
e 260 176
e 260 192
e 260 200
e 260 232
e 260 248
e 261 24
e 261 40
e 261 48
e 261 64
e 261 72
e 261 80
e 261 96
e 261 112
e 261 128
e 261 136
e 261 152
e 261 160
e 261 176
e 261 184
e 261 208
e 261 216
e 261 224
e 262 24
e 262 40
e 262 56
e 262 72
e 262 80
e 262 96
e 262 104
e 262 120
e 262 128
e 262 136
e 262 144
e 262 160
e 262 176
e 262 192
e 262 200
e 262 208
e 262 224
e 263 8
e 263 16
e 263 40
e 263 48
e 263 56
e 263 72
e 263 88
e 263 96
e 263 112
e 263 120
e 263 128
e 263 136
e 263 144
e 263 152
e 263 176
e 263 200
e 263 224
e 263 232
e 263 240
e 263 248
e 263 256
e 264 16
e 264 32
e 264 64
e 264 80
e 264 104
e 264 112
e 264 120
e 264 128
e 264 136
e 264 152
e 264 176
e 264 184
e 264 208
e 264 216
e 264 224
e 264 240
e 264 256
e 265 8
e 265 40
e 265 48
e 265 56
e 265 64
e 265 80
e 265 88
e 265 104
e 265 112
e 265 120
e 265 136
e 265 144
e 265 152
e 265 176
e 265 184
e 265 192
e 265 200
e 265 232
e 265 256
e 266 8
e 266 24
e 266 56
e 266 64
e 266 96
e 266 104
e 266 112
e 266 152
e 266 168
e 266 208
e 266 224
e 266 232
e 266 248
e 266 256
e 267 24
e 267 40
e 267 80
e 267 96
e 267 120
e 267 160
e 267 168
e 267 192
e 267 208
e 267 216
e 267 240
e 267 248
e 268 8
e 268 16
e 268 32
e 268 64
e 268 72
e 268 88
e 268 104
e 268 112
e 268 144
e 268 152
e 268 168
e 268 192
e 268 200
e 268 216
e 268 232
e 268 248
e 268 256
e 269 8
e 269 24
e 269 32
e 269 48
e 269 56
e 269 64
e 269 72
e 269 120
e 269 128
e 269 144
e 269 160
e 269 168
e 269 176
e 269 184
e 269 200
e 269 232
e 269 240
e 269 248
e 270 24
e 270 56
e 270 80
e 270 96
e 270 128
e 270 160
e 270 168
e 270 192
e 270 200
e 270 208
e 270 248
e 271 8
e 271 16
e 271 24
e 271 40
e 271 56
e 271 64
e 271 88
e 271 120
e 271 136
e 271 152
e 271 160
e 271 192
e 271 200
e 271 216
e 271 232
e 271 240
e 271 248
e 271 256
e 272 24
e 272 40
e 272 48
e 272 64
e 272 72
e 272 80
e 272 96
e 272 112
e 272 168
e 272 176
e 272 192
e 272 208
e 272 224
e 272 240
e 272 248
e 272 256
e 273 8
e 273 16
e 273 24
e 273 32
e 273 40
e 273 64
e 273 96
e 273 104
e 273 128
e 273 136
e 273 152
e 273 160
e 273 168
e 273 192
e 273 200
e 273 216
e 273 232
e 273 240
e 273 256
e 274 24
e 274 40
e 274 64
e 274 72
e 274 80
e 274 96
e 274 104
e 274 112
e 274 120
e 274 128
e 274 136
e 274 144
e 274 152
e 274 160
e 274 168
e 274 192
e 274 208
e 274 240
e 274 256
e 274 264
e 275 8
e 275 16
e 275 24
e 275 32
e 275 48
e 275 88
e 275 112
e 275 120
e 275 136
e 275 152
e 275 160
e 275 168
e 275 176
e 275 184
e 275 200
e 275 208
e 275 224
e 275 240
e 275 248
e 275 264
e 276 8
e 276 88
e 276 136
e 276 160
e 276 176
e 276 192
e 276 200
e 276 248
e 276 264
e 277 8
e 277 16
e 277 40
e 277 72
e 277 80
e 277 88
e 277 96
e 277 104
e 277 112
e 277 128
e 277 144
e 277 168
e 277 176
e 277 184
e 277 216
e 277 248
e 278 24
e 278 32
e 278 40
e 278 56
e 278 64
e 278 72
e 278 88
e 278 104
e 278 112
e 278 120
e 278 128
e 278 136
e 278 144
e 278 152
e 278 160
e 278 176
e 278 184
e 278 192
e 278 208
e 278 224
e 278 232
e 278 240
e 278 248
e 278 256
e 278 264
e 279 80
e 279 88
e 279 96
e 279 120
e 279 128
e 279 144
e 279 168
e 279 200
e 279 208
e 279 216
e 279 256
e 279 264
e 280 8
e 280 32
e 280 48
e 280 64
e 280 96
e 280 112
e 280 120
e 280 128
e 280 176
e 280 184
e 280 200
e 280 264
e 281 8
e 281 16
e 281 24
e 281 32
e 281 40
e 281 48
e 281 56
e 281 64
e 281 88
e 281 128
e 281 160
e 281 168
e 281 200
e 281 216
e 281 224
e 281 232
e 281 248
e 281 264
e 281 280
e 282 24
e 282 32
e 282 40
e 282 56
e 282 64
e 282 80
e 282 88
e 282 112
e 282 120
e 282 128
e 282 136
e 282 152
e 282 168
e 282 176
e 282 184
e 282 208
e 282 216
e 282 232
e 282 264
e 282 272
e 282 280
e 283 8
e 283 24
e 283 32
e 283 64
e 283 72
e 283 80
e 283 112
e 283 128
e 283 160
e 283 184
e 283 192
e 283 208
e 283 216
e 283 224
e 283 248
e 283 272
e 283 280
e 284 56
e 284 80
e 284 88
e 284 112
e 284 136
e 284 144
e 284 160
e 284 176
e 284 184
e 284 200
e 284 208
e 284 224
e 284 240
e 284 256
e 284 272
e 285 8
e 285 16
e 285 32
e 285 40
e 285 56
e 285 104
e 285 112
e 285 120
e 285 144
e 285 152
e 285 176
e 285 256
e 286 72
e 286 80
e 286 88
e 286 120
e 286 128
e 286 144
e 286 152
e 286 160
e 286 176
e 286 184
e 286 208
e 286 216
e 286 232
e 286 240
e 286 248
e 286 256
e 286 264
e 286 272
e 287 8
e 287 16
e 287 32
e 287 48
e 287 56
e 287 64
e 287 72
e 287 80
e 287 96
e 287 112
e 287 120
e 287 128
e 287 136
e 287 152
e 287 168
e 287 176
e 287 184
e 287 216
e 287 224
e 287 232
e 287 240
e 287 256
e 287 272
e 287 280
e 288 8
e 288 16
e 288 24
e 288 32
e 288 40
e 288 48
e 288 88
e 288 104
e 288 112
e 288 136
e 288 144
e 288 152
e 288 168
e 288 192
e 288 200
e 288 224
e 288 232
e 288 240
e 288 248
e 288 264
e 289 24
e 289 40
e 289 72
e 289 88
e 289 96
e 289 104
e 289 120
e 289 128
e 289 136
e 289 152
e 289 168
e 289 176
e 289 184
e 289 192
e 289 208
e 289 216
e 289 240
e 289 256
e 289 264
e 289 280
e 290 8
e 290 16
e 290 24
e 290 40
e 290 48
e 290 64
e 290 72
e 290 80
e 290 104
e 290 120
e 290 136
e 290 144
e 290 160
e 290 208
e 290 224
e 290 240
e 290 248
e 290 256
e 290 272
e 290 280
e 291 24
e 291 32
e 291 56
e 291 104
e 291 120
e 291 176
e 291 184
e 291 232
e 291 240
e 291 256
e 291 264
e 291 272
e 291 280
e 291 288
e 292 24
e 292 32
e 292 40
e 292 56
e 292 88
e 292 96
e 292 104
e 292 136
e 292 160
e 292 168
e 292 224
e 292 248
e 292 288
e 293 8
e 293 32
e 293 40
e 293 64
e 293 72
e 293 96
e 293 136
e 293 144
e 293 152
e 293 160
e 293 168
e 293 176
e 293 184
e 293 200
e 293 208
e 293 216
e 293 224
e 293 232
e 293 264
e 293 280
e 293 288
e 294 8
e 294 16
e 294 24
e 294 56
e 294 72
e 294 80
e 294 88
e 294 112
e 294 120
e 294 128
e 294 136
e 294 144
e 294 152
e 294 160
e 294 176
e 294 208
e 294 232
e 294 240
e 294 248
e 294 256
e 294 264
e 294 280
e 295 16
e 295 40
e 295 48
e 295 56
e 295 72
e 295 96
e 295 104
e 295 120
e 295 128
e 295 144
e 295 160
e 295 168
e 295 176
e 295 192
e 295 216
e 295 232
e 295 240
e 295 248
e 295 256
e 295 264
e 295 272
e 295 280
e 296 8
e 296 64
e 296 80
e 296 88
e 296 104
e 296 112
e 296 128
e 296 136
e 296 144
e 296 168
e 296 184
e 296 192
e 296 200
e 296 216
e 296 256
e 296 264
e 297 32
e 297 40
e 297 48
e 297 64
e 297 96
e 297 112
e 297 128
e 297 136
e 297 144
e 297 168
e 297 224
e 297 240
e 297 280
e 297 288
e 298 16
e 298 32
e 298 40
e 298 48
e 298 88
e 298 96
e 298 112
e 298 128
e 298 136
e 298 144
e 298 152
e 298 160
e 298 168
e 298 184
e 298 192
e 298 208
e 298 216
e 298 232
e 298 248
e 298 256
e 298 264
e 298 272
e 299 24
e 299 40
e 299 48
e 299 56
e 299 64
e 299 72
e 299 80
e 299 88
e 299 104
e 299 120
e 299 152
e 299 160
e 299 176
e 299 184
e 299 192
e 299 208
e 299 216
e 299 224
e 299 248
e 299 272
e 299 288
e 300 8
e 300 24
e 300 32
e 300 56
e 300 88
e 300 96
e 300 112
e 300 152
e 300 176
e 300 184
e 300 192
e 300 208
e 300 216
e 300 224
e 300 232
e 300 256
e 300 280
e 300 288
